NAME : mst2approx_a280
TYPE : TOUR
DIMENSION : 280
TOUR_SECTION
1
280
2
3
279
278
4
277
276
275
274
273
272
271
16
17
18
19
20
21
128
127
126
125
30
31
32
29
28
27
26
22
25
23
24
33
34
124
123
122
121
120
119
157
158
159
160
175
161
162
163
164
165
166
167
168
169
101
100
99
102
103
104
105
106
107
173
174
108
110
111
114
113
87
84
83
82
81
80
89
109
90
91
92
93
94
95
96
97
98
79
88
112
85
65
64
66
67
70
71
72
73
74
75
76
77
78
68
69
86
116
115
117
118
61
60
43
42
41
40
39
38
37
35
36
62
63
59
44
45
46
47
48
49
50
51
52
53
54
55
56
57
58
170
171
172
129
154
155
153
156
152
151
177
176
181
180
179
182
183
184
185
187
186
188
189
190
191
192
178
130
131
132
133
134
135
136
137
138
139
140
141
142
143
144
145
199
198
197
194
195
196
193
201
200
202
203
204
205
206
207
208
209
252
255
256
253
254
257
258
259
260
261
262
263
210
211
214
215
218
219
222
223
224
225
226
227
228
229
230
251
250
247
244
241
240
239
238
231
232
233
234
235
236
237
246
242
243
245
249
248
212
213
216
217
220
221
146
147
148
149
150
266
265
264
267
268
269
270
6
5
7
8
9
10
11
12
13
14
15
-1
